(set-option :produce-models true); benchmark generated from python API
(set-info :status unknown)
(declare-fun l_1_0_7 () Real)
(declare-fun l_1_0_5 () Real)
(declare-fun l_1_0_3 () Real)
(declare-fun l_1_0_2 () Real)
(declare-fun l_1_0_14 () Real)
(declare-fun l_1_0_13 () Real)
(declare-fun l_1_0_12 () Real)
(declare-fun _a_0_ () Real)
(declare-fun l_1_0_11 () Real)
(declare-fun l_1_0_10 () Real)
(declare-fun _a_1_ () Real)
(declare-fun l_1_0_9 () Real)
(declare-fun l_1_0_8 () Real)
(declare-fun l_1_0_6 () Real)
(declare-fun l_1_0_4 () Real)
(declare-fun l_1_0_1 () Real)
(declare-fun l_1_1_9 () Real)
(declare-fun l_1_1_8 () Real)
(declare-fun l_1_1_7 () Real)
(declare-fun l_1_1_6 () Real)
(declare-fun l_1_1_5 () Real)
(declare-fun l_1_1_4 () Real)
(declare-fun l_1_1_3 () Real)
(declare-fun l_1_1_2 () Real)
(declare-fun l_1_1_15 () Real)
(declare-fun l_1_1_14 () Real)
(declare-fun l_1_1_13 () Real)
(declare-fun l_1_1_12 () Real)
(declare-fun l_1_1_11 () Real)
(declare-fun l_1_1_10 () Real)
(declare-fun l_1_1_1 () Real)
(declare-fun l_1_1_20 () Real)
(declare-fun l_1_1_19 () Real)
(declare-fun l_1_1_18 () Real)
(declare-fun l_1_1_17 () Real)
(declare-fun l_1_1_16 () Real)
(declare-fun l_1_2_9 () Real)
(declare-fun l_1_2_8 () Real)
(declare-fun l_1_2_4 () Real)
(declare-fun l_1_2_3 () Real)
(declare-fun l_1_2_20 () Real)
(declare-fun l_1_2_19 () Real)
(declare-fun l_1_2_18 () Real)
(declare-fun l_1_2_10 () Real)
(declare-fun l_1_2_1 () Real)
(declare-fun l_1_2_7 () Real)
(declare-fun l_1_2_5 () Real)
(declare-fun l_1_2_12 () Real)
(declare-fun l_1_2_11 () Real)
(declare-fun l_1_2_17 () Real)
(declare-fun l_1_2_16 () Real)
(declare-fun l_1_2_6 () Real)
(declare-fun l_1_2_2 () Real)
(declare-fun l_1_2_15 () Real)
(declare-fun l_1_2_14 () Real)
(declare-fun l_1_2_13 () Real)
(assert
 (let ((?x45 (* 2.0 l_1_0_5)))
 (let ((?x49 (* l_1_0_14 l_1_0_14)))
 (let ((?x1053 (- (- (- _a_0_ (* l_1_0_12 l_1_0_12)) (* l_1_0_13 l_1_0_13)) ?x49)))
 (= (+ (+ (+ (+ ?x1053 l_1_0_2) l_1_0_3) ?x45) l_1_0_7) 0.0)))))
(assert
 (let ((?x45 (* 2.0 l_1_0_5)))
 (let ((?x41 (- (- (- _a_1_ (* l_1_0_10 l_1_0_10)) (* l_1_0_11 l_1_0_11)) l_1_0_2)))
 (= (- (- (- ?x41 l_1_0_3) ?x45) l_1_0_7) 0.0))))
(assert
 (let ((?x715 (* l_1_0_9 l_1_0_9)))
 (let ((?x736 (- (- (- (- l_1_0_1) (* 1.0 l_1_0_2)) (* 1.0 l_1_0_3)) l_1_0_4)))
 (let ((?x952 (- (- (- (- ?x736 (* 1.0 l_1_0_5)) l_1_0_6) (* 1.0 l_1_0_7)) l_1_0_8)))
 (= (+ (- ?x952 ?x715) 1.0) 0.0)))))
(assert
 (= (- l_1_0_5) 0.0))
(assert
 (let ((?x45 (* 2.0 l_1_0_5)))
 (= ?x45 0.0)))
(assert
 (= (- l_1_0_5) 0.0))
(assert
 (= (* (* (- 2.0) l_1_0_10) l_1_0_9) 0.0))
(assert
 (= (* (* (- 2.0) l_1_0_12) l_1_0_9) 0.0))
(assert
 (let ((?x816 (- (* (* (- 2.0) l_1_0_10) l_1_0_12) (* (* 2.0 l_1_0_11) l_1_0_13))))
 (= ?x816 0.0)))
(assert
 (>= l_1_0_1 0.0))
(assert
 (>= l_1_0_2 0.0))
(assert
 (>= l_1_0_3 0.0))
(assert
 (>= l_1_0_4 0.0))
(assert
 (>= l_1_0_5 0.0))
(assert
 (>= l_1_0_6 0.0))
(assert
 (>= l_1_0_7 0.0))
(assert
 (>= l_1_0_8 0.0))
(assert
 (>= l_1_0_9 0.0))
(assert
 (>= l_1_0_11 0.0))
(assert
 (>= l_1_0_14 0.0))
(assert
 (let ((?x765 (* l_1_1_15 l_1_1_15)))
 (let ((?x759 (+ (+ (* (- 1.0) l_1_1_1) (* 1.0 l_1_1_10)) (* 1.0 l_1_1_11))))
 (let ((?x673 (- (- (- (- (- ?x759 (* 1.0 l_1_1_12)) l_1_1_13) l_1_1_14) ?x765) (* 1.0 l_1_1_2))))
 (let ((?x681 (- (+ (+ ?x673 (* 1.0 l_1_1_3)) (* 1.0 l_1_1_4)) (* 1.0 l_1_1_5))))
 (let ((?x687 (+ (- (- (- ?x681 l_1_1_6) (* 1.0 l_1_1_7)) l_1_1_8) (* 1.0 l_1_1_9))))
 (= (+ ?x687 (/ 15.0 4.0)) 0.0)))))))
(assert
 (let ((?x22 (* l_1_1_20 l_1_1_20)))
 (let ((?x20 (* l_1_1_19 l_1_1_19)))
 (let ((?x636 (* l_1_1_18 l_1_1_18)))
 (let ((?x635 (* 2.0 l_1_1_12)))
 (let ((?x514 (* _a_0_ l_1_1_5)))
 (let ((?x34 (- (- (- (* (- _a_0_) l_1_1_1) (* _a_0_ l_1_1_2)) ?x514) (* (* 2.0 _a_0_) l_1_1_7))))
 (let ((?x506 (- (- (- (+ (- (- ?x34 l_1_1_10) l_1_1_11) ?x635) ?x636) ?x20) ?x22)))
 (let ((?x396 (- (- (- ?x506 (* l_1_1_3 (- 1.0 (* 1.0 _a_0_)))) l_1_1_4) (* l_1_1_9 (- 1.0 (* 1.0 _a_0_))))))
 (= (+ ?x396 1.0) 0.0))))))))))
(assert
 (let ((?x366 (* l_1_1_17 l_1_1_17)))
 (let ((?x364 (* l_1_1_16 l_1_1_16)))
 (let ((?x635 (* 2.0 l_1_1_12)))
 (let ((?x356 (* _a_1_ l_1_1_5)))
 (let ((?x360 (- (- (- (* (- _a_1_) l_1_1_1) (* _a_1_ l_1_1_2)) ?x356) (* (* 2.0 _a_1_) l_1_1_7))))
 (let ((?x371 (- (- (- (+ (- (- ?x360 l_1_1_10) l_1_1_11) ?x635) ?x364) ?x366) (* l_1_1_3 (- 1.0 (* 1.0 _a_1_))))))
 (let ((?x376 (+ (- (- ?x371 l_1_1_4) (* l_1_1_9 (- 1.0 (* 1.0 _a_1_)))) 1.0)))
 (= ?x376 0.0)))))))))
(assert
 (= (- (* (* (- 2.0) l_1_1_15) l_1_1_16) 4.0) 0.0))
(assert
 (let ((?x195 (- (- (- (* (- _a_0_) l_1_1_3) (* _a_0_ l_1_1_9)) l_1_1_12) (* (* l_1_1_7 _a_0_) _a_0_))))
 (= ?x195 0.0)))
(assert
 (let ((?x635 (* 2.0 l_1_1_12)))
 (let ((?x191 (- (- (* (* (* (- 2.0) _a_0_) _a_1_) l_1_1_7) ?x635) (* l_1_1_3 (+ _a_0_ _a_1_)))))
 (= (- ?x191 (* l_1_1_9 (+ _a_0_ _a_1_))) 0.0))))
(assert
 (let ((?x122 (- (- (- (* (- _a_1_) l_1_1_3) (* _a_1_ l_1_1_9)) l_1_1_12) (* (* l_1_1_7 _a_1_) _a_1_))))
 (= ?x122 0.0)))
(assert
 (= (* (* (- 2.0) l_1_1_15) l_1_1_18) 0.0))
(assert
 (let ((?x71 (- (* (* (- 2.0) l_1_1_16) l_1_1_18) (* (* 2.0 l_1_1_17) l_1_1_19))))
 (= ?x71 0.0)))
(assert
 (>= l_1_1_1 0.0))
(assert
 (>= l_1_1_2 0.0))
(assert
 (>= l_1_1_3 0.0))
(assert
 (>= l_1_1_4 0.0))
(assert
 (>= l_1_1_5 0.0))
(assert
 (>= l_1_1_6 0.0))
(assert
 (>= l_1_1_7 0.0))
(assert
 (>= l_1_1_8 0.0))
(assert
 (>= l_1_1_9 0.0))
(assert
 (>= l_1_1_10 0.0))
(assert
 (>= l_1_1_11 0.0))
(assert
 (>= l_1_1_12 0.0))
(assert
 (>= l_1_1_13 0.0))
(assert
 (>= l_1_1_14 0.0))
(assert
 (>= l_1_1_15 0.0))
(assert
 (>= l_1_1_17 0.0))
(assert
 (>= l_1_1_20 0.0))
(assert
 (let ((?x1033 (* 2.0 l_1_2_3)))
 (let ((?x901 (* l_1_2_20 l_1_2_20)))
 (let ((?x216 (* l_1_2_19 l_1_2_19)))
 (let ((?x593 (* l_1_2_18 l_1_2_18)))
 (let ((?x398 (* (/ 81.0 1000000.0) _a_1_)))
 (let ((?x649 (* (/ 81.0 100.0) _a_0_)))
 (let ((?x652 (* _a_0_ l_1_2_7)))
 (let ((?x648 (- (- (* (- _a_0_) l_1_2_11) (* _a_0_ l_1_2_12)) (* (* 2.0 _a_0_) l_1_2_5))))
 (let ((?x595 (- (+ (+ (+ (- ?x648 ?x652) ?x649) ?x398) l_1_2_1) (* l_1_2_10 (- (* 1.0 _a_0_) 1.0)))))
 (let ((?x1042 (+ (+ (+ (- (- (- ?x595 ?x593) ?x216) ?x901) ?x1033) l_1_2_4) l_1_2_8)))
 (= (- ?x1042 (* l_1_2_9 (- (* 1.0 _a_0_) 1.0))) 0.0))))))))))))
(assert
 (let ((?x131 (* (/ 81.0 5000.0) _a_1_)))
 (let ((?x128 (* (- (/ 81.0 5000.0)) _a_0_)))
 (let ((?x135 (+ ?x128 ?x131)))
 (let ((?x414 (- (- ?x135 (* (* 2.0 l_1_2_16) l_1_2_18)) (* (* 2.0 l_1_2_17) l_1_2_19))))
 (= ?x414 0.0))))))
(assert
 (let ((?x1033 (* 2.0 l_1_2_3)))
 (let ((?x731 (* l_1_2_17 l_1_2_17)))
 (let ((?x497 (* l_1_2_16 l_1_2_16)))
 (let ((?x733 (* (/ 81.0 100.0) _a_1_)))
 (let ((?x726 (* _a_1_ l_1_2_7)))
 (let ((?x96 (* _a_1_ l_1_2_12)))
 (let ((?x723 (- (- (- (* (/ 81.0 1000000.0) _a_0_) (* _a_1_ l_1_2_11)) ?x96) (* (* 2.0 _a_1_) l_1_2_5))))
 (let ((?x496 (- (+ (+ (- ?x723 ?x726) ?x733) l_1_2_1) (* l_1_2_10 (- (* 1.0 _a_1_) 1.0)))))
 (let ((?x606 (- (+ (+ (+ (- (- ?x496 ?x497) ?x731) ?x1033) l_1_2_4) l_1_2_8) (* l_1_2_9 (- (* 1.0 _a_1_) 1.0)))))
 (= ?x606 0.0)))))))))))
(assert
 (let ((?x977 (* l_1_2_15 l_1_2_15)))
 (let ((?x785 (- (- (* (- 1.0) l_1_2_1) (* 1.0 l_1_2_10)) (* 1.0 l_1_2_11))))
 (let ((?x847 (- (- (- (- (- ?x785 (* 1.0 l_1_2_12)) l_1_2_13) l_1_2_14) ?x977) l_1_2_2)))
 (let ((?x581 (- (- (- ?x847 (* 1.0 l_1_2_3)) (* 1.0 l_1_2_4)) (* 1.0 l_1_2_5))))
 (let ((?x328 (- (- (- (- ?x581 l_1_2_6) (* 1.0 l_1_2_7)) (* 1.0 l_1_2_8)) (* 1.0 l_1_2_9))))
 (= (+ ?x328 1.0) 0.0)))))))
(assert
 (let ((?x800 (- (- (+ (* _a_0_ l_1_2_10) (* _a_0_ l_1_2_9)) l_1_2_3) (* (* l_1_2_5 _a_0_) _a_0_))))
 (= ?x800 0.0)))
(assert
 (let ((?x1033 (* 2.0 l_1_2_3)))
 (let ((?x221 (- (* (* (* (- 2.0) _a_0_) _a_1_) l_1_2_5) (* l_1_2_10 (- (- _a_0_) _a_1_)))))
 (= (- (- ?x221 ?x1033) (* l_1_2_9 (- (- _a_0_) _a_1_))) 0.0))))
(assert
 (let ((?x437 (- (- (+ (* _a_1_ l_1_2_10) (* _a_1_ l_1_2_9)) l_1_2_3) (* (* l_1_2_5 _a_1_) _a_1_))))
 (= ?x437 0.0)))
(assert
 (= (* (* (- 2.0) l_1_2_15) l_1_2_16) 0.0))
(assert
 (= (* (* (- 2.0) l_1_2_15) l_1_2_18) 0.0))
(assert
 (>= l_1_2_1 0.0))
(assert
 (>= l_1_2_2 0.0))
(assert
 (>= l_1_2_3 0.0))
(assert
 (>= l_1_2_4 0.0))
(assert
 (>= l_1_2_5 0.0))
(assert
 (>= l_1_2_6 0.0))
(assert
 (>= l_1_2_7 0.0))
(assert
 (>= l_1_2_8 0.0))
(assert
 (>= l_1_2_9 0.0))
(assert
 (>= l_1_2_10 0.0))
(assert
 (>= l_1_2_11 0.0))
(assert
 (>= l_1_2_12 0.0))
(assert
 (>= l_1_2_13 0.0))
(assert
 (>= l_1_2_14 0.0))
(assert
 (>= l_1_2_15 0.0))
(assert
 (>= l_1_2_17 0.0))
(assert
 (>= l_1_2_20 0.0))
(check-sat)
(get-model)